[2026-03-23T13:59:04.188Z] Pipeline "set_exp_2_exp_2_n035_c001_g004" → 2026_03_23_13_59_04_set_exp_2_exp_2_n035_c001_g004_max.sol
Set parameter WLSAccessID
Set parameter WLSSecret
Set parameter LicenseID to value 2792458
Set parameter LogFile to value "gurobi.log"
Using license file /root/gurobi.lic
Academic license 2792458 - for non-commercial use only - registered to an___@studenti.unipg.it

Gurobi Optimizer version 13.0.1 build v13.0.1rc0 (linux64 - "Ubuntu 24.04.4 LTS")
Copyright (c) 2026, Gurobi Optimization, LLC

Warning: Duplicate section found (read 'binary') - Is a variable name equal to an LP file format keyword?
Warning: Duplicate section found (read 'binary') - Is a variable name equal to an LP file format keyword?
Warning: Duplicate section found (read 'binary') - Is a variable name equal to an LP file format keyword?
Warning: Duplicate section found (read 'binary') - Is a variable name equal to an LP file format keyword?
Warning: Duplicate section found (read 'binary') - Is a variable name equal to an LP file format keyword?
Warning: Duplicate section found (read 'binary') - Is a variable name equal to an LP file format keyword?
Warning: Duplicate section found (read 'binary') - Is a variable name equal to an LP file format keyword?
Warning: Duplicate section found (read 'binary') - Is a variable name equal to an LP file format keyword?
Warning: Duplicate section found (read 'binary') - Is a variable name equal to an LP file format keyword?
Warning: Duplicate section found (read 'binary') - Is a variable name equal to an LP file format keyword?
Warning: Further warnings of this type will be omitted.
Read LP format model from file /root/bgw/data/uploads/2026_03_23_13_59_04_set_exp_2_exp_2_n035_c001_g004_max.lp
Reading time = 0.01 seconds
: 15507 rows, 989 columns, 45285 nonzeros

Using Gurobi shared library /opt/gurobi1301/linux64/lib/libgurobi.so.13.0.1

CPU model: AMD EPYC-Genoa Processor, instruction set [SSE2|AVX|AVX2|AVX512]
Thread count: 16 physical cores, 16 logical processors, using up to 16 threads

Academic license 2792458 - for non-commercial use only - registered to an___@studenti.unipg.it
Optimize a model with 15507 rows, 989 columns and 45285 nonzeros (Max)
Model fingerprint: 0x15ed6dcb
Model has 10 linear objective coefficients
Variable types: 45 continuous, 944 integer (944 binary)
Coefficient statistics:
  Matrix range     [1e+00, 4e+01]
  Objective range  [1e+00, 1e+00]
  Bounds range     [1e+00, 1e+00]
  RHS range        [1e+00, 4e+01]

Found heuristic solution: objective 10.0000000
Presolve removed 2386 rows and 375 columns
Presolve time: 0.05s
Presolved: 13121 rows, 614 columns, 39587 nonzeros
Variable types: 0 continuous, 614 integer (607 binary)
Found heuristic solution: objective 16.0000000

Root relaxation: objective 4.600000e+01, 577 iterations, 0.05 seconds (0.06 work units)

    Nodes    |    Current Node    |     Objective Bounds      |     Work
 Expl Unexpl |  Obj  Depth IntInf | Incumbent    BestBd   Gap | It/Node Time

     0     0   46.00000    0   18   16.00000   46.00000   188%     -    0s
H    0     0                      28.0000000   46.00000  64.3%     -    0s
     0     0   46.00000    0   25   28.00000   46.00000  64.3%     -    0s
     0     0   46.00000    0   26   28.00000   46.00000  64.3%     -    0s
     0     0   46.00000    0   26   28.00000   46.00000  64.3%     -    0s
     0     0   46.00000    0   26   28.00000   46.00000  64.3%     -    0s
     0     0   46.00000    0   29   28.00000   46.00000  64.3%     -    0s
     0     0   46.00000    0   24   28.00000   46.00000  64.3%     -    0s
     0     0   46.00000    0   26   28.00000   46.00000  64.3%     -    0s
     0     0   46.00000    0   26   28.00000   46.00000  64.3%     -    0s
     0     0   46.00000    0   26   28.00000   46.00000  64.3%     -    0s
     0     0   46.00000    0   26   28.00000   46.00000  64.3%     -    0s
     0     0   46.00000    0   26   28.00000   46.00000  64.3%     -    0s
     0     0   46.00000    0   26   28.00000   46.00000  64.3%     -    0s
     0     0   46.00000    0   24   28.00000   46.00000  64.3%     -    0s
     0     0   46.00000    0   24   28.00000   46.00000  64.3%     -    0s
     0     0   46.00000    0   24   28.00000   46.00000  64.3%     -    0s
     0     2   46.00000    0   24   28.00000   46.00000  64.3%     -    0s
  1940   105 infeasible   13        28.00000   36.47273  30.3%   179    5s

Cutting planes:
  Gomory: 1
  Cover: 17
  MIR: 5
  Inf proof: 20

Explored 2335 nodes (435862 simplex iterations) in 6.07 seconds (11.57 work units)
Thread count was 16 (of 16 available processors)

Solution count 3: 28 16 10 

Optimal solution found (tolerance 1.00e-04)
Best objective 2.800000000000e+01, best bound 2.800000000000e+01, gap 0.0000%

Wrote result file '/root/bgw/data/results/2026_03_23_13_59_04_set_exp_2_exp_2_n035_c001_g004_max.sol'

